0001 5
0002 15
0003 11
0004 23
0005 4
0006 1
0007 7
0008 16
0009 3
0010 19
0011 21
0012 1
0013 10
0014 17
0015 9
0016 1
0017 7
0018 4
0019 7
0020 1
0021 2
0022 18
0023 13
0024 23
0025 15
0026 9
0027 12
0028 5
0029 1
0030 7
0031 23
0032 2
0033 17
0034 8
0035 5
0036 4
0037 13
0038 11
0039 3
0040 1
0041 12
0042 22
0043 8
0044 4
0045 13
0046 12
0047 1
0048 17
0049 3
0050 8
0051 20
0052 23
0053 4
0054 17
0055 10
0056 1
0057 18
0058 6
0059 7
0060 13
0061 23
0062 1
0063 19
0064 6
0065 11
0066 2
0067 23
0068 13
0069 3
0070 13
0071 21
0072 12
0073 6
0074 19
0075 23
0076 5
0077 20
0078 15
0079 1
0080 6
0081 17
0082 1
0083 17
0084 8
0085 6
0086 9
0087 22
0088 3
0089 23
0090 2
0091 5
0092 20
0093 5
0094 14
0095 16
0096 19
0097 14
0098 10
0099 17
0100 22
0101 7
0102 13
0103 20
0104 23
0105 3
0106 11
0107 18
0108 6
0109 5
0110 16
0111 14
0112 15
0113 10
0114 21
0115 13
0116 21
0117 13
0118 7
0119 4
0120 7
0121 20
0122 7
0123 12
0124 1
0125 23
0126 9
0127 18
0128 16
0129 2
0130 2
0131 15
0132 10
0133 19
0134 9
0135 1
0136 4
0137 23
0138 12
0139 10
0140 3
0141 23
0142 5
0143 19
0144 18
0145 1
0146 15
0147 2
0148 20
0149 8
0150 11
0151 21
0152 2
0153 4
0154 23
0155 14
0156 23
0157 16
0158 14
0159 15
0160 22
0161 9
0162 2
0163 16
0164 1
0165 10
0166 1
0167 2
0168 11
0169 6
0170 8
0171 21
0172 5
0173 11
0174 22
0175 13
0176 14
0177 1
0178 11
0179 2
0180 4
0181 2
0182 5
0183 19
0184 22
0185 1
0186 1
0187 11
0188 6
0189 23
0190 7
0191 11
0192 18
0193 18
0194 4
0195 2
0196 19
0197 12
0198 1
0199 15
0200 9
0201 22
0202 6
0203 18
0204 15
0205 7
0206 13
0207 11
0208 4
0209 21
0210 21
0211 17
0212 5
0213 7
0214 9
0215 15
0216 22
0217 19
0218 3
0219 9
0220 8
0221 13
0222 2
0223 11
0224 16
0225 1
0226 4
0227 8
0228 17
0229 21
0230 20
0231 23
0232 2
0233 7
0234 20
0235 10
0236 3
0237 11
0238 8
0239 23
0240 22
0241 1
0242 15
0243 6
0244 3
0245 2
0246 1
0247 4
0248 6
0249 11
0250 14
0251 22
0252 16
0253 10
0254 15
0255 10
0256 3
0257 23
0258 14
0259 1
0260 19
0261 17
